n_res = 7;
rcap = [22, 32, 24, 24, 27, 53, 66];
rtype = [1, 1, 1, 1, 1, 2, 2];
n_tasks = 16;
modes = [ {1, 2, 3}, {4, 5, 6}, {7, 8, 9}, {10, 11, 12}, {13, 14, 15}, {16, 17, 18}, {19, 20, 21}, {22, 23, 24}, {25, 26, 27}, {28, 29, 30}, {31, 32, 33}, {34, 35, 36}, {37, 38, 39}, {40, 41, 42}, {43, 44, 45}, {46, 47, 48} ];
succ = [ {8, 12}, {4, 5, 10}, {4, 9, 11}, {12, 13}, {6, 8, 13}, {7, 11, 16}, {12}, {9, 15, 16}, {14}, {11, 13, 16}, {14}, {15}, {14}, {}, {}, {} ];
n_opt = 48;
dur = [1, 3, 4, 2, 2, 7, 3, 5, 8, 2, 2, 6, 1, 6, 7, 4, 10, 10, 1, 2, 3, 4, 7, 9, 1, 2, 7, 1, 7, 10, 2, 2, 5, 6, 7, 10, 7, 8, 9, 1, 6, 8, 5, 5, 8, 2, 10, 10];
rreq = [|  0,  0,  3,  0,  0,  0,  0,  4,  0,  0,  0,  0,  9,  5,  0,  0,  0,  0,  0,  0,  0,  0,  9,  5,  0,  8,  5,  0,  5,  0,  5,  4,  0,  0,  0,  0,  8,  8,  0,  5,  0,  4, 10,  0,  8,  4,  2,  3
        |  8,  7,  0,  0,  0,  0,  0,  6,  6,  0,  0,  0,  5,  0,  4,  9,  8,  0,  9,  7,  4,  0,  7,  0,  4,  4,  2,  9,  6,  0,  0,  0,  6,  8,  0,  5,  8,  5,  3,  9,  0,  0,  0,  6,  5,  6,  0,  0
        |  5,  0,  0,  5,  6,  2,  8,  0,  0,  9,  0,  0,  7,  7,  4,  6,  5,  4, 10,  9,  0,  0,  0,  4,  0,  0,  0,  0,  0,  5,  6,  0,  6,  0,  5,  0,  0,  0,  0,  2,  0,  0,  0,  0,  0,  0,  8,  6
        |  0,  0,  0,  3,  0,  2,  7,  6,  4,  4, 10,  0,  0,  6,  2,  4,  0,  3,  0,  6,  0,  0,  4,  0,  8,  7,  6,  0,  0,  0,  0, 10,  9,  5,  0,  5,  4,  0,  0,  4,  3,  3,  3,  3,  2,  7,  5,  0
        |  0,  0,  0,  0,  0,  8,  0,  0,  2,  6,  8,  4,  0,  0,  0,  0, 10,  0,  5,  0,  0,  1,  1,  0, 10,  0,  8,  9,  5,  0,  3,  3,  1,  0,  8,  6,  7,  0,  6,  0,  0,  8,  0,  6,  0,  0,  0,  4
        |  2,  0,  0,  0,  7,  6,  7,  0,  6,  7,  0,  0,  0,  6,  0,  0,  0,  5,  0,  0,  0,  0,  9,  8,  9,  7,  0,  3,  1,  0,  0,  4,  0,  0,  6,  4,  0,  0,  0,  0,  0,  0,  0,  6,  0,  0,  0,  0
        |  0,  6,  6,  7,  0,  0,  0,  4,  0,  0,  2,  2,  9,  0,  6,  7,  6,  0,  7,  6,  2,  8,  0,  0,  0,  0,  4,  0,  0,  7,  5,  0,  5,  6,  0,  0,  2,  2,  2,  4,  3,  1,  3,  0,  3,  5,  2,  3 |];
